NAME : OMNETRUN
COMMENT : 524.61
TYPE : CVRP
DIMENSION : 21
EDGE_WEIGHT_TYPE : EUC_2D
CAPACITY : 21
NODE_COORD_SECTION
1 0.107093 -0.77924
2 117.081 -530.638
3 102.972 -1501.99
4 187.02 -2101.06
5 94.6187 -2592.68
6 234.035 -3253.64
7 117.18 -3679.83
8 45.8947 -4395.62
9 101.19 -4808.98
10 198.45 -5227.45
11 406.08 -249.371
12 285.771 -921.067
13 424.611 -2828.11
14 593.088 -1411.44
15 509.69 -1953.29
16 689.042 -3365.93
17 568.209 -3921.44
18 672.834 -4512.67
19 559.754 -5067.56
20 592.865 -5550.01
21 885.185 -35.3575
DEMAND_SECTION
1 0
2 1
3 1
4 1
5 1
6 1
7 1
8 1
9 1
10 1
11 1
12 1
13 1
14 1
15 1
16 1
17 1
18 1
19 1
20 1
21 1
DEPOT_SECTION
1
-1
EOF
